certificates/rado_a15_c168_N34.cnf
c Rad2 upper bound instance: x1 + 15*x2 - x3 = 168, interval [1,34]
p cnf 34 154
1 12 13 0
-1 -12 -13 0
1 13 28 0
-1 -13 -28 0
2 12 14 0
-2 -12 -14 0
2 13 29 0
-2 -13 -29 0
3 12 15 0
-3 -12 -15 0
3 13 30 0
-3 -13 -30 0
1 4 11 0
-1 -4 -11 0
4 12 16 0
-4 -12 -16 0
4 13 31 0
-4 -13 -31 0
2 5 11 0
-2 -5 -11 0
5 12 17 0
-5 -12 -17 0
5 13 32 0
-5 -13 -32 0
3 6 11 0
-3 -6 -11 0
6 12 18 0
-6 -12 -18 0
6 13 33 0
-6 -13 -33 0
4 7 11 0
-4 -7 -11 0
7 12 19 0
-7 -12 -19 0
7 13 34 0
-7 -13 -34 0
5 8 11 0
-5 -8 -11 0
8 12 20 0
-8 -12 -20 0
6 9 11 0
-6 -9 -11 0
9 12 21 0
-9 -12 -21 0
7 10 11 0
-7 -10 -11 0
10 12 22 0
-10 -12 -22 0
8 11 0
-8 -11 0
11 12 23 0
-11 -12 -23 0
9 11 12 0
-9 -11 -12 0
12 24 0
-12 -24 0
10 11 13 0
-10 -11 -13 0
12 13 25 0
-12 -13 -25 0
11 14 0
-11 -14 0
12 14 26 0
-12 -14 -26 0
11 12 15 0
-11 -12 -15 0
12 15 27 0
-12 -15 -27 0
11 13 16 0
-11 -13 -16 0
12 16 28 0
-12 -16 -28 0
11 14 17 0
-11 -14 -17 0
12 17 29 0
-12 -17 -29 0
11 15 18 0
-11 -15 -18 0
12 18 30 0
-12 -18 -30 0
1 10 19 0
-1 -10 -19 0
11 16 19 0
-11 -16 -19 0
12 19 31 0
-12 -19 -31 0
2 10 20 0
-2 -10 -20 0
11 17 20 0
-11 -17 -20 0
12 20 32 0
-12 -20 -32 0
3 10 21 0
-3 -10 -21 0
11 18 21 0
-11 -18 -21 0
12 21 33 0
-12 -21 -33 0
4 10 22 0
-4 -10 -22 0
11 19 22 0
-11 -19 -22 0
12 22 34 0
-12 -22 -34 0
5 10 23 0
-5 -10 -23 0
11 20 23 0
-11 -20 -23 0
6 10 24 0
-6 -10 -24 0
11 21 24 0
-11 -21 -24 0
7 10 25 0
-7 -10 -25 0
11 22 25 0
-11 -22 -25 0
8 10 26 0
-8 -10 -26 0
11 23 26 0
-11 -23 -26 0
9 10 27 0
-9 -10 -27 0
11 24 27 0
-11 -24 -27 0
10 28 0
-10 -28 0
11 25 28 0
-11 -25 -28 0
10 11 29 0
-10 -11 -29 0
11 26 29 0
-11 -26 -29 0
10 12 30 0
-10 -12 -30 0
11 27 30 0
-11 -27 -30 0
10 13 31 0
-10 -13 -31 0
11 28 31 0
-11 -28 -31 0
10 14 32 0
-10 -14 -32 0
11 29 32 0
-11 -29 -32 0
10 15 33 0
-10 -15 -33 0
11 30 33 0
-11 -30 -33 0
1 9 34 0
-1 -9 -34 0
10 16 34 0
-10 -16 -34 0
11 31 34 0
-11 -31 -34 0
