certificates/rado_a15_c168_N34.drat
11 -32 -34 0
-13 -11 -34 0
-11 -34 0
d -31 -11 -34 0
13 -34 0
-34 0
11 -13 0
-11 -13 0
d -16 -11 -13 0
-13 0
7 0
-11 0
8 0
14 0
31 0
16 0
10 0
-25 0
-26 0
-28 0
-32 0
0
